!UKS CAM-B3LYP 6-31g(d,p) OPT FREQ AUTOAUX UNO 

%freq
 restart true
end

%MaxCore 2500

%pal
 nprocs 8
end

* XYZ 0 1 
  C      2.934787    3.906796   -0.832060
  C      0.297033    1.208715   -0.384438
  C     -0.688113    0.852620   -1.305220
  H     -0.969243    1.557690   -2.081413
  C     -1.311327   -0.389216   -1.250385
  H     -2.069218   -0.616021   -1.990282
  C     -0.979764   -1.327083   -0.272452
  H      6.671786    9.860427   -1.126778
  C      0.017658   -0.967488    0.641560
  H      0.309198   -1.662067    1.423383
  C      0.645448    0.268871    0.588832
  H      1.410335    0.514760    1.318160
  C      4.745237    7.802876   -1.449048
  C      2.213675    5.089745   -0.732773
  C      0.827719    5.008038   -0.436347
  C      0.043763    6.192188   -0.274283
  C      0.196478    3.738461   -0.284649
  C     -1.176878    3.698234    0.059818
  C      0.953880    2.541365   -0.450529
  H      3.998320    3.916922   -1.031444
  C      2.325815    2.646773   -0.697193
  C      3.163649    1.498903   -0.843636
  H      3.410632   11.289265    0.112394
  C      3.986983    8.978422   -1.299451
  C      2.655833    8.831984   -0.957752
  H      2.028685    9.706775   -0.831110
  C      2.051185    7.572069   -0.768016
  H      6.213099    9.791473   -2.838111
  C      2.830583    6.398556   -0.920316
  H      5.791961    7.858904   -1.720629
  C      4.181662    6.556735   -1.262809
  H      4.809971    5.684155   -1.397880
  C      0.658163    7.465583   -0.432916
  C     -1.323744    6.079337    0.043308
  C      6.058744   10.332461   -1.899924
  C     -0.112220    8.644771   -0.264917
  C     -1.944890    4.845516    0.220155
  H     -1.630485    2.728068    0.212806
  H     -1.883865    6.997316    0.155703
  C     -3.428668    4.714696    0.588822
  C     -4.125810    6.076964    0.682942
  H     -4.080110    6.622755   -0.263760
  H     -5.180939    5.932448    0.931868
  C     -3.554809    4.013608    1.953468
  H     -3.685617    6.705557    1.462124
  H     -3.051935    4.589699    2.735551
  C     -4.149879    3.878359   -0.483403
  H     -4.608528    3.909308    2.231344
  H     -3.113500    3.014055    1.938232
  H      6.432800   11.350444   -2.040384
  H     -5.208952    3.768292   -0.229292
  H     -4.084397    4.359833   -1.463504
  H     -3.723597    2.876064   -0.573892
  C     -1.660982   -2.696606   -0.169649
  C     -2.336143   -2.831443    1.207327
  H     -3.097386   -2.058519    1.346580
  H     -2.822685   -3.807855    1.298390
  C     -2.732276   -2.893760   -1.248836
  H     -1.615406   -2.741195    2.023729
  H     -3.195793   -3.877284   -1.131266
  C     -0.607838   -3.807620   -0.330165
  H     -3.525303   -2.144152   -1.174342
  H     -2.309213   -2.846757   -2.256289
  H      4.996736   10.695266    0.614309
  H     -1.083034   -4.792508   -0.272258
  H     -0.102724   -3.731138   -1.297573
  H      0.153401   -3.760185    0.453128
  C      4.577380   10.378867   -1.505065
  C      3.804676   11.099491   -2.624444
  H      3.874915   10.547467   -3.566093
  H      2.745192   11.208551   -2.380603
  C      4.452672   11.183553   -0.199342
  H      4.215603   12.101403   -2.785422
  H      4.866681   12.188426   -0.331093
  H     -1.345925   10.535344    0.008011
  C     -0.767341    9.649925   -0.120716
  C      8.359503   -7.337063   -1.338514
  H      8.996187   -8.189300   -1.398416
  H      3.268250  -10.067317    0.803646
  C      4.308978   -1.801073   -0.935206
  C      6.788411    1.027268   -1.471682
  C      7.376850    1.404022   -2.683137
  H      7.410561    0.692506   -3.502431
  C      7.915364    2.670240   -2.851172
  H      8.364241    2.919190   -3.807734
  C      7.892559    3.620648   -1.823943
  H      1.151863   -7.868394    0.657602
  C      7.292114    3.242144   -0.622389
  H      7.249806    3.935496    0.209091
  C      6.749238    1.971798   -0.448817
  H      6.295667    1.709829    0.501725
  C      2.648729   -5.791759   -0.567988
  C      5.091940   -2.945532   -1.022696
  C      6.487646   -2.790725   -1.230342
  C      7.346363   -3.931069   -1.308539
  C      7.058481   -1.489769   -1.354905
  C      8.461897   -1.373651   -1.512086
  C      6.222492   -0.336944   -1.291396
  H      3.241795   -1.868496   -0.769239
  C      4.853781   -0.512152   -1.064821
  C      3.960370    0.598231   -0.968380
  H      4.718788   -9.087232    0.557928
  C      3.478430   -6.925292   -0.644237
  C      4.827240   -6.707420   -0.854668
  H      5.508465   -7.547455   -0.924810
  C      5.380346   -5.416352   -0.982433
  H      0.874944   -7.943194   -1.092231
  C      4.530052   -4.286158   -0.898419
  H      1.583338   -5.903289   -0.409059
  C      3.162227   -4.517150   -0.692987
  H      2.475879   -3.681786   -0.629007
  C      6.790513   -5.235195   -1.189509
  C      8.730077   -3.744358   -1.493862
  C      1.429972   -8.390474   -0.262549
  C      7.637483   -6.370525   -1.269428
  C      9.302599   -2.478118   -1.586038
  H      8.882678   -0.378457   -1.566595
  H      9.346689   -4.630763   -1.551076
  C     10.812916   -2.268509   -1.757580
  C     11.578823   -3.594620   -1.831518
  H     11.258515   -4.203469   -2.681898
  H     12.647096   -3.393496   -1.952069
  C     11.355933   -1.466038   -0.561488
  H     11.454197   -4.187139   -0.920765
  H     11.187291   -2.001350    0.377312
  C     11.076463   -1.486856   -3.057087
  H     12.432968   -1.303939   -0.671373
  H     10.878072   -0.486891   -0.478717
  H      1.098155   -9.428029   -0.165755
  H     12.150641   -1.323922   -3.190998
  H     10.705598   -2.037856   -3.926256
  H     10.590014   -0.508460   -3.048814
  C      8.526490    4.998990   -2.044002
  C     10.027247    4.823504   -2.340147
  H     10.195031    4.210579   -3.229135
  H     10.498301    5.796842   -2.510496
  C      7.851171    5.694760   -3.239617
  H     10.536884    4.341278   -1.501011
  H      8.303843    6.676834   -3.411368
  C      8.385228    5.907278   -0.816575
  H      7.955557    5.116833   -4.161032
  H      6.782152    5.839970   -3.059494
  H      3.434311   -8.503416    1.620152
  H      8.851741    6.875261   -1.021249
  H      7.337399    6.092063   -0.562290
  H      8.880086    5.484153    0.062148
  C      2.944280   -8.356062   -0.502578
  C      3.245246   -9.144228   -1.789686
  H      2.762581   -8.679440   -2.654274
  H      4.317813   -9.192823   -1.992683
  C      3.635027   -9.042122    0.689524
  H      2.873598  -10.170338   -1.703167
  *
