%nprocshared=1
%mem=2gb
%chk=/gpfs/home/gdb20/code/batch-manager/temp/oh-radical_water_gau_m08-hx_6-311++Gdp/oh-radical_water_gau_m08-hx_6-311++Gdp.gjf.chk
#opt freq uM08HX/6-311++G* SRCF(SMD,Solvent=water)

super secret special scripts shaped sthis submission sfile

0 2
O            0.11368148223621       -0.00000000000001        0.00000000000001
H           -0.86036516283621       -0.00000000009999        0.00000000009999


