%nprocshared=1
%mem=2gb
%chk=/gpfs/home/gdb20/code/batch-manager/temp/oh-radical_gas_gau_pbeo_6-311++Gdp/oh-radical_gas_gau_pbeo_6-311++Gdp.gjf.chk
#opt freq uPBEPBE/6-311++G*

super secret special scripts shaped sthis submission sfile

0 2
O            0.10831326774922       -0.00000000000001        0.00000000000001
H           -0.85499694844922       -0.00000000009999        0.00000000009999


