%nprocshared=1
%mem=2gb
%chk=temp/test.gjf.chk
#opt freq uPBEPBE/6-311++G*

super secret special scripts shaped sthis submission sfile

0 2
O -0.282 0.618 0.000
H -1.129 0.606 0.000


