%nprocshared=1
%mem=2gb
%chk=/gpfs/home/gdb20/code/batch-manager/temp/h2o2_gas_gau_pbeo_6-311++Gdp/h2o2_gas_gau_pbeo_6-311++Gdp.gjf.chk
#opt freq uPBEPBE/6-311++G*

super secret special scripts shaped sthis submission sfile

0 1
 O         -0.7064300808       -0.0756578520        0.0000374421
 O          0.7064382244        0.0756605084        0.0000374332
 H         -1.0080827861        0.8416670757       -0.0005942946
 H          1.0079535155       -0.8417092432       -0.0005942762


